p cnf 14 28
-14 13 -3 0
-14 12 -10 0
14 11 6 0
14 -11 -4 0
-14 9 3 0
14 8 2 0
14 7 4 0
-14 -6 -4 0
14 4 2 0
-13 11 10 0
-13 9 8 0
13 9 3 0
13 -8 -4 0
13 -8 1 0
13 5 3 0
12 9 6 0
12 -8 -2 0
12 -7 2 0
12 4 -2 0
11 3 -1 0
10 8 -1 0
9 -8 -4 0
-9 -6 -4 0
9 -3 -1 0
8 -7 -2 0
7 6 -3 0
6 -5 -1 0
-5 2 1 0
